WARNING: for repeatability, setting FPU to use double precision
============================[ Problem Statistics ]=============================
|                                                                             |
|  Number of variables:        230655                                         |
|  Number of clauses:          528854                                         |
|  Parse time:                   0.29 s                                       |
|                                                                             |
============================[ Search Statistics ]==============================
| Conflicts |          ORIGINAL         |          LEARNT          | Progress |
|           |    Vars  Clauses Literals |    Limit  Clauses Lit/Cl |          |
===============================================================================
|       100 |  126614   505915  1137444 |   185502      100     12 | 45.107 % |
|       250 |  126614   505915  1137444 |   204052      250     18 | 45.107 % |
|       475 |  126614   505915  1137444 |   224457      475     50 | 45.107 % |
|       812 |  126614   505915  1137444 |   246903      812     46 | 45.107 % |
|      1318 |  126614   505915  1137444 |   271593     1318     83 | 45.107 % |
===============================================================================
restarts              : 11
conflicts             : 1669           (1165 /sec)
decisions             : 24716          (0.00 % random) (17259 /sec)
propagations          : 4653683        (3249577 /sec)
conflict literals     : 119468         (4.19 % deleted)
Memory used           : 61.00 MB
CPU time              : 1.43209 s

SATISFIABLE
